c read Graph
c width = 2
c time = 14 ms
c width = 2
c time = 4962 ms
s td 14 3 16
b 1 1 2 10
b 2 2 3 11
b 3 3 4 12
b 4 4 5 13
b 5 5 6 14
b 6 6 7 15
b 7 7 8 16
b 8 7 15 16
b 9 6 14 15
b 10 5 13 14
b 11 4 12 13
b 12 3 11 12
b 13 2 10 11
b 14 1 9 10
1 14
1 13
2 13
2 12
3 12
3 11
4 11
4 10
5 10
5 9
6 9
6 8
7 8
